c Instância derivada de trechos contínuos ao longo de uma trilha.
p edge 40 47
e 1 9
e 1 13
e 1 39
e 2 5
e 2 14
e 2 20
e 3 7
e 3 31
e 3 36
e 4 28
e 5 20
e 6 17
e 6 32
e 7 31
e 7 36
e 8 12
e 8 15
e 8 18
e 9 39
e 10 33
e 11 25
e 11 29
e 11 30
e 11 34
e 11 35
e 12 15
e 12 18
e 12 24
e 14 20
e 15 18
e 16 22
e 16 26
e 17 32
e 17 38
e 18 24
e 19 24
e 21 28
e 22 26
e 25 29
e 25 30
e 27 40
e 29 30
e 29 34
e 29 35
e 30 34
e 30 35
e 34 35
